N = 180;
F = 7;
MaxItemsPerDay = 30;
MaxDay = 50;
name = ["i1", "i2", "i3", "i4", "i5", "i6", "i7", "i8", "i9", "i10", "i11", "i12", "i13", "i14", "i15", "i16", "i17", "i18", "i19", "i20", "i21", "i22", "i23", "i24", "i25", "i26", "i27", "i28", "i29", "i30", "i31", "i32", "i33", "i34", "i35", "i36", "i37", "i38", "i39", "i40", "i41", "i42", "i43", "i44", "i45", "i46", "i47", "i48", "i49", "i50", "i51", "i52", "i53", "i54", "i55", "i56", "i57", "i58", "i59", "i60", "i61", "i62", "i63", "i64", "i65", "i66", "i67", "i68", "i69", "i70", "i71", "i72", "i73", "i74", "i75", "i76", "i77", "i78", "i79", "i80", "i81", "i82", "i83", "i84", "i85", "i86", "i87", "i88", "i89", "i90", "i91", "i92", "i93", "i94", "i95", "i96", "i97", "i98", "i99", "i100", "i101", "i102", "i103", "i104", "i105", "i106", "i107", "i108", "i109", "i110", "i111", "i112", "i113", "i114", "i115", "i116", "i117", "i118", "i119", "i120", "i121", "i122", "i123", "i124", "i125", "i126", "i127", "i128", "i129", "i130", "i131", "i132", "i133", "i134", "i135", "i136", "i137", "i138", "i139", "i140", "i141", "i142", "i143", "i144", "i145", "i146", "i147", "i148", "i149", "i150", "i151", "i152", "i153", "i154", "i155", "i156", "i157", "i158", "i159", "i160", "i161", "i162", "i163", "i164", "i165", "i166", "i167", "i168", "i169", "i170", "i171", "i172", "i173", "i174", "i175", "i176", "i177", "i178", "i179", "i180"];
kind = [1, 3, 13, 5, 8, 3, 5, 15, 9, 13, 18, 3, 1, 12, 3, 12, 14, 1, 17, 18, 4, 18, 3, 18, 13, 9, 4, 12, 3, 10, 8, 16, 1, 18, 8, 7, 14, 14, 12, 15, 10, 9, 11, 13, 10, 16, 17, 8, 6, 1, 18, 14, 14, 6, 12, 10, 13, 4, 4, 8, 5, 7, 8, 5, 11, 1, 14, 4, 5, 11, 17, 18, 15, 4, 18, 17, 1, 4, 12, 18, 18, 12, 2, 17, 16, 14, 1, 6, 16, 12, 10, 5, 18, 18, 10, 2, 16, 14, 15, 17, 11, 14, 8, 14, 1, 18, 18, 1, 8, 12, 1, 5, 10, 16, 17, 8, 8, 10, 5, 13, 12, 15, 14, 15, 5, 14, 10, 3, 4, 11, 8, 1, 17, 14, 16, 13, 10, 16, 13, 13, 6, 2, 18, 6, 12, 1, 10, 17, 8, 10, 6, 15, 15, 12, 6, 14, 7, 4, 1, 14, 13, 12, 18, 7, 6, 16, 18, 13, 6, 14, 2, 3, 11, 18, 5, 13, 14, 11, 3, 2];
facility = [
  { 1, 6 },
  { 3, 4 },
  { 1, 2, 3, 5 },
  { 2, 5 },
  { 1, 4, 5 },
  { 1, 3, 4 },
  { 2, 4, 5, 7 },
  { 7 },
  { 4 },
  { 4, 7 },
  { 1, 3, 5, 6 },
  { 1, 2, 3, 4, 5, 7 },
  { 1, 3, 4, 5, 6, 7 },
  { 5, 7 },
  { 1, 3 },
  { 3, 4, 5, 7 },
  { 3, 4, 5 },
  { 1, 2, 6 },
  { 2 },
  { 2, 3, 7 },
  { 1, 2, 4, 5, 7 },
  { 1, 5, 7 },
  { 1, 3, 5 },
  { 1, 4, 5, 6 },
  { 3, 4, 5 },
  { 1, 3, 4 },
  { 1, 2, 4 },
  { 1, 2, 3, 7 },
  { 1, 3, 4, 5 },
  { 1, 2, 4, 6 },
  { 1, 4, 6 },
  { 2, 3, 4, 6, 7 },
  { 1 },
  { 6 },
  { 1, 7 },
  { 6, 7 },
  { 1, 3, 5 },
  { 1, 7 },
  { 2, 3, 5, 6, 7 },
  { 1, 3, 5 },
  { 3, 4, 7 },
  { 5, 6 },
  { 2, 4, 5, 7 },
  { 3, 5, 6, 7 },
  { 1, 3, 4 },
  { 5 },
  { 1, 2, 6, 7 },
  { 3, 6, 7 },
  { 1, 6, 7 },
  { 1, 2, 3, 5, 7 },
  { 1, 6, 7 },
  { 1, 5 },
  { 1, 2, 3, 7 },
  { 3, 5, 6, 7 },
  { 1, 4, 7 },
  { 1, 2, 6 },
  { 1, 4, 5 },
  { 1, 4, 5 },
  { 1, 4, 5 },
  { 3, 6 },
  { 4, 5, 6 },
  { 1, 5, 7 },
  { 1, 5, 6 },
  { 4, 5, 6, 7 },
  { 2, 3 },
  { 1, 2, 4, 5, 6, 7 },
  { 3, 4, 5, 6 },
  { 3, 4, 5 },
  { 3, 5, 6, 7 },
  { 4, 7 },
  { 7 },
  { 3, 4 },
  { 1, 2, 3, 6 },
  { 2, 4, 7 },
  { 1, 5 },
  { 1, 2, 5 },
  { 1, 2, 3, 4, 6 },
  { 1, 3, 4, 5 },
  { 2, 4, 7 },
  { 1, 5, 7 },
  { 3 },
  { 1, 3, 5, 7 },
  { 1, 2, 3, 4, 7 },
  { 1, 3, 6 },
  { 1, 4, 5 },
  { 2, 3, 5, 6 },
  { 1, 3 },
  { 1, 3, 4, 5, 6 },
  { 3, 4 },
  { 1, 2, 4, 5, 6 },
  { 1 },
  { 2, 5 },
  { 3 },
  { 2, 3, 5 },
  { 1, 2, 4, 6, 7 },
  { 2 },
  { 6 },
  { 4, 5, 7 },
  { 3, 5, 6, 7 },
  { 3, 5 },
  { 1, 2, 3, 5 },
  { 1, 3, 4, 5, 7 },
  { 2, 5, 6, 7 },
  { 1, 3, 6, 7 },
  { 1, 2, 3, 4, 5 },
  { 1, 2, 3, 4, 5, 7 },
  { 2, 3 },
  { 1, 4, 5 },
  { 1, 2, 5, 6 },
  { 1, 6, 7 },
  { 1, 3, 4, 5, 7 },
  { 4, 5 },
  { 1, 2, 3, 5, 6 },
  { 3, 5, 7 },
  { 2, 3, 5, 6 },
  { 2, 3, 6, 7 },
  { 4, 7 },
  { 4, 6, 7 },
  { 1, 5, 6 },
  { 5 },
  { 1, 4 },
  { 1, 2, 3 },
  { 2, 4 },
  { 1 },
  { 3, 5, 6, 7 },
  { 6 },
  { 2 },
  { 3, 5 },
  { 1, 4, 6 },
  { 4, 7 },
  { 2, 3, 6 },
  { 1, 3, 4, 5 },
  { 7 },
  { 3 },
  { 1, 7 },
  { 1, 2, 3 },
  { 3, 4, 5, 7 },
  { 5, 7 },
  { 2, 3, 5, 7 },
  { 2 },
  { 2, 6, 7 },
  { 2 },
  { 1, 2, 4, 5, 7 },
  { 3, 5, 6 },
  { 1, 4 },
  { 1, 4, 5, 7 },
  { 2, 4, 6 },
  { 1, 2, 4 },
  { 1, 5, 7 },
  { 1, 7 },
  { 2, 5, 6, 7 },
  { 2, 3, 4, 5, 7 },
  { 1, 2, 4, 6 },
  { 2, 4, 6 },
  { 1, 6, 7 },
  { 1, 2, 5, 6 },
  { 5, 7 },
  { 2, 3, 4, 6, 7 },
  { 1, 3, 4, 5, 7 },
  { 2, 3, 5, 6 },
  { 1, 4, 6 },
  { 1, 2, 4, 5, 6 },
  { 1, 2, 3, 4 },
  { 2, 3, 5, 6, 7 },
  { 6 },
  { 2, 3, 6 },
  { 2, 4, 5, 7 },
  { 2, 3, 4 },
  { 1, 2, 5, 6 },
  { 2, 4, 5 },
  { 1, 2, 5, 6, 7 },
  { 1, 3, 5 },
  { 1, 2, 7 },
  { 3, 4, 5, 6 },
  { 1, 2, 5, 6 },
  { 1, 3, 5, 6, 7 },
  { 4 },
  { 1, 2, 6 },
  { 1, 3, 7 },
  { 2, 3, 4, 5, 6 }
];
producedDay = [25, 25, 25, 25, 25, 25, 10, 25, 25, 25, 25, 25, 25, 25, 25, 18, 9, 25, 20, 25, 25, 25, 25, 25, 25, 25, 25, 25, 25, 25, 25, 25, 25, 25, 5, 25, 22, 25, 25, 25, 25, 9, 25, 25, 25, 25, 25, 25, 25, 25, 25, 25, 25, 25, 25, 25, 25, 4, 25, 25, 25, 25, 25, 25, 25, 25, 25, 3, 25, 25, 25, 25, 25, 25, 25, 25, 25, 25, 25, 25, 25, 25, 25, 25, 25, 25, 25, 12, 25, 25, 25, 25, 25, 25, 6, 25, 25, 25, 20, 6, 2, 25, 25, 25, 25, 25, 25, 25, 25, 25, 25, 25, 25, 25, 25, 15, 4, 25, 25, 25, 25, 25, 25, 25, 25, 25, 25, 25, 12, 25, 25, 25, 25, 25, 25, 25, 25, 25, 25, 22, 25, 25, 25, 25, 25, 25, 23, 25, 25, 25, 25, 25, 25, 25, 25, 25, 25, 25, 25, 25, 25, 25, 25, 25, 25, 25, 25, 13, 25, 25, 25, 25, 25, 25, 14, 25, 25, 25, 5, 22];
deadLineDay = [38, 41, 46, 50, 37, 42, 23, 50, 50, 28, 50, 37, 50, 36, 39, 50, 50, 50, 50, 49, 50, 41, 50, 31, 50, 50, 50, 32, 37, 49, 50, 41, 48, 50, 16, 50, 50, 48, 47, 50, 50, 41, 50, 39, 50, 36, 50, 50, 50, 33, 50, 50, 50, 50, 50, 29, 49, 5, 50, 50, 34, 50, 38, 50, 50, 50, 38, 16, 29, 38, 50, 28, 50, 50, 30, 49, 50, 33, 50, 50, 50, 50, 50, 50, 50, 36, 35, 14, 50, 47, 50, 50, 44, 50, 21, 50, 26, 50, 50, 50, 7, 50, 50, 50, 44, 31, 50, 43, 42, 39, 50, 48, 27, 50, 50, 40, 50, 50, 50, 50, 26, 50, 26, 50, 43, 50, 50, 46, 32, 34, 50, 50, 50, 50, 46, 50, 50, 50, 30, 40, 31, 34, 26, 50, 50, 28, 43, 50, 40, 29, 50, 50, 43, 43, 50, 48, 50, 34, 32, 29, 33, 50, 36, 27, 50, 36, 40, 50, 44, 27, 50, 50, 50, 50, 50, 50, 50, 50, 16, 50];
